NAME: wi29
COMMENT: solucao exata obtida pelo professor utilizando um metodo branch-and-bound simples
COMMENT: 12.223s
TYPE: TOUR
DIMENSION: 29
TOTAL_WEIGHT: 27603
TOUR_SECTION
1
5
8
4
3
7
9
13
14
16
24
27
25
20
26
28
29
23
22
21
17
18
19
15
12
11
10
6
2
EOF